db/data/2200532483598126474338117958819525636.z3.out
-------------------
2500.077394408
